c FILE /home/rafael/Documents/HappySet/MIHS/inputs/happygen/output/graph_d_regular_k3_p0.1_v100_20241127_084008.txt
c SOURCE This is a d-regular graph formed for the happy graph colouring problem.
c DESCRIPTION It was generated using the problem generator of Rhyd Lewis
c
c GRAPH STATS
c Seed                             = -1140502501
c Number of Nodes                  = 100
c Number of colours k              = 3
c Number of pre-assignments        = 10
c Degree of all vertices           = 6
c Density                          = 0.0606061
c 
c The degrees of nodes 1 to 100, respectively, are as follows 
c [6, 6, 6, 6, 6, 6, 6, 6, 6, 6, 6, 6, 6, 6, 6, 6, 6, 6, 6, 6, 6, 6, 6, 6, 6, 6, 
c  6, 6, 6, 6, 6, 6, 6, 6, 6, 6, 6, 6, 6, 6, 6, 6, 6, 6, 6, 6, 6, 6, 6, 6, 6, 
c  6, 6, 6, 6, 6, 6, 6, 6, 6, 6, 6, 6, 6, 6, 6, 6, 6, 6, 6, 6, 6, 6, 6, 6, 6, 
c  6, 6, 6, 6, 6, 6, 6, 6, 6, 6, 6, 6, 6, 6, 6, 6, 6, 6, 6, 6, 6, 6, 6, 6] 
c  
p edge 100 300 3
e 1 10
e 1 27
e 1 68
e 1 73
e 1 91
e 1 95
e 2 30
e 2 51
e 2 60
e 2 64
e 2 66
e 2 93
e 3 18
e 3 28
e 3 34
e 3 50
e 3 55
e 3 67
e 4 24
e 4 32
e 4 38
e 4 48
e 4 55
e 4 56
e 5 13
e 5 27
e 5 41
e 5 62
e 5 63
e 5 91
e 6 15
e 6 27
e 6 41
e 6 70
e 6 88
e 6 99
e 7 9
e 7 23
e 7 31
e 7 76
e 7 92
e 7 100
e 8 9
e 8 15
e 8 20
e 8 39
e 8 49
e 8 82
e 9 36
e 9 64
e 9 72
e 9 94
e 10 18
e 10 39
e 10 47
e 10 72
e 10 76
e 11 49
e 11 51
e 11 58
e 11 84
e 11 94
e 11 96
e 12 26
e 12 27
e 12 32
e 12 84
e 12 91
e 12 100
e 13 34
e 13 45
e 13 54
e 13 58
e 13 61
e 14 46
e 14 63
e 14 69
e 14 78
e 14 86
e 14 92
e 15 36
e 15 38
e 15 40
e 15 82
e 16 32
e 16 33
e 16 52
e 16 67
e 16 85
e 16 99
e 17 18
e 17 22
e 17 25
e 17 50
e 17 61
e 17 80
e 18 51
e 18 58
e 18 88
e 19 27
e 19 40
e 19 45
e 19 47
e 19 54
e 19 59
e 20 31
e 20 43
e 20 44
e 20 52
e 20 87
e 21 24
e 21 37
e 21 59
e 21 82
e 21 96
e 21 98
e 22 23
e 22 68
e 22 74
e 22 84
e 22 86
e 23 40
e 23 53
e 23 71
e 23 92
e 24 65
e 24 69
e 24 90
e 24 99
e 25 47
e 25 53
e 25 62
e 25 73
e 25 100
e 26 50
e 26 55
e 26 60
e 26 70
e 26 89
e 27 66
e 28 41
e 28 53
e 28 70
e 28 84
e 28 85
e 29 63
e 29 81
e 29 87
e 29 88
e 29 97
e 29 98
e 30 37
e 30 69
e 30 74
e 30 79
e 30 91
e 31 41
e 31 44
e 31 59
e 31 74
e 32 33
e 32 43
e 32 81
e 33 42
e 33 49
e 33 60
e 33 69
e 34 41
e 34 56
e 34 70
e 34 75
e 35 63
e 35 74
e 35 78
e 35 79
e 35 93
e 35 98
e 36 56
e 36 57
e 36 76
e 36 83
e 37 39
e 37 60
e 37 71
e 37 83
e 38 50
e 38 54
e 38 66
e 38 94
e 39 46
e 39 72
e 39 83
e 40 42
e 40 82
e 40 85
e 41 75
e 42 47
e 42 52
e 42 57
e 42 73
e 43 57
e 43 70
e 43 91
e 43 99
e 44 55
e 44 75
e 44 78
e 44 100
e 45 51
e 45 56
e 45 58
e 45 90
e 46 52
e 46 63
e 46 94
e 46 100
e 47 48
e 47 55
e 48 66
e 48 77
e 48 78
e 48 96
e 49 66
e 49 76
e 49 80
e 50 54
e 50 90
e 51 55
e 51 59
e 52 89
e 52 93
e 53 71
e 53 77
e 53 95
e 54 74
e 54 80
e 56 64
e 56 97
e 57 59
e 57 61
e 57 88
e 58 61
e 58 87
e 59 72
e 60 76
e 60 96
e 61 71
e 61 84
e 62 71
e 62 72
e 62 77
e 62 79
e 63 80
e 64 67
e 64 81
e 64 96
e 65 68
e 65 78
e 65 87
e 65 91
e 65 92
e 66 97
e 67 69
e 67 88
e 67 89
e 68 79
e 68 80
e 68 81
e 69 95
e 70 72
e 71 89
e 73 77
e 73 81
e 73 97
e 74 96
e 75 89
e 75 95
e 75 98
e 76 93
e 77 83
e 77 98
e 78 92
e 79 83
e 79 90
e 80 82
e 81 85
e 82 94
e 83 86
e 84 87
e 85 97
e 85 100
e 86 93
e 86 94
e 86 99
e 87 88
e 89 90
e 90 97
e 92 93
e 95 98
e 95 99
n 7 2
n 9 2
n 25 2
n 41 3
n 50 2
n 51 2
n 63 1
n 68 1
n 93 1
n 99 3
